TP1/93288.lp
/* Objective function */
min: 3.00 * xI_1 + 4.24 * xI_2 + 6.32 * xI_3 + 8.25 * xI_4 + 6.00 * xI_6 + 10.00 * xI_9 + 10.20 * xI_10 + 11.18 *  xI_11 + 12.81 *  xI_12 + 7.21 *  xI_13 + 14.42 *  xI_F
                 + 3.00 * x1_2 + 6.08 * x1_3 + 8.06 * x1_4 + 3.00 * x1_6 +  7.00 * x1_9 +  7.28 * x1_10 +  8.60 *  x1_11 + 10.63 *  x1_12 + 5.00 *  x1_13 + 12.04 *  x1_F
                               + 3.16 * x2_3 + 5.10 * x2_4 + 4.24 * x2_6 +  7.62 * x2_9 +  7.07 * x2_10 +  7.28 *  x2_11 +  8.60 *  x2_12 + 3.16 *  x2_13 + 10.30 *  x2_F
                                             + 2.00 * x3_4 + 7.21 * x3_6 + 10.00 * x3_9 +  8.94 * x3_10 +  8.06 *  x3_11 +  8.25 *  x3_12 + 4.47 *  x3_13 + 10.20 *  x3_F
                                                           + 8.94 * x4_6 + 11.31 * x4_9 + 10.00 * x4_10 +  8.54 *  x4_11 +  8.00 *  x4_12 + 5.66 *  x4_13 + 10.00 *  x4_F
                                                                         +  4.00 * x6_9 +  4.47 * x6_10 +  6.40 *  x6_11 +  8.94 *  x6_12 + 4.00 *  x6_13 + 10.00 *  x6_F
                                                                                        +  2.00 * x9_10 +  5.00 *  x9_11 +  8.00 *  x9_12 + 5.66 *  x9_13 +  8.25 *  x9_F
                                                                                                        +  3.00 * x10_11 +  6.00 * x10_12 + 4.47 * x10_13 +  6.32 * x10_F
                                                                                                                         +  3.00 * x11_12 + 4.12 * x11_13 +  3.61 * x11_F
                                                                                                                                          + 5.66 * x12_13 +  2.00 * x12_F
                                                                                                                                                          +  7.21 * x13_F;
/* Variable bounds */
         xI_1 +  xI_2 +  xI_3 +  xI_4 +  xI_6 +  xI_9 +  xI_10 +  xI_11 +  xI_12 +  xI_13 +  xI_F = 1;
 xI_1         +  x1_2 +  x1_3 +  x1_4 +  x1_6 +  x1_9 +  x1_10 +  x1_11 +  x1_12 +  x1_13 +  x1_F = 1;
 xI_2 +  x1_2         +  x2_3 +  x2_4 +  x2_6 +  x2_9 +  x2_10 +  x2_11 +  x2_12 +  x2_13 +  x2_F = 1;
 xI_3 +  x1_3 +  x2_3         +  x3_4 +  x3_6 +  x3_9 +  x3_10 +  x3_11 +  x3_12 +  x3_13 +  x3_F = 1;
 xI_4 +  x1_4 +  x2_4 +  x3_4         +  x4_6 +  x4_9 +  x4_10 +  x4_11 +  x4_12 +  x4_13 +  x4_F = 1;
 xI_6 +  x1_6 +  x2_6 +  x3_6 +  x4_6         +  x6_9 +  x6_10 +  x6_11 +  x6_12 +  x6_13 +  x6_F = 1;
 xI_9 +  x1_9 +  x2_9 +  x3_9 +  x4_9 +  x6_9         +  x9_10 +  x9_11 +  x9_12 +  x9_13 +  x9_F = 1;
xI_10 + x1_10 + x2_10 + x3_10 + x4_10 + x6_10 + x9_10          + x10_11 + x10_12 + x10_13 + x10_F = 1;
xI_11 + x1_11 + x2_11 + x3_11 + x4_11 + x6_11 + x9_11 + x10_11          + x11_12 + x11_13 + x11_F = 1;
xI_12 + x1_12 + x2_12 + x3_12 + x4_12 + x6_12 + x9_12 + x10_12 + x11_12          + x12_13 + x12_F = 1;
xI_13 + x1_13 + x2_13 + x3_13 + x4_13 + x6_13 + x9_13 + x10_13 + x11_13 + x12_13          + x13_F = 1;
 xI_F +  x1_F +  x2_F +  x3_F +  x4_F +  x6_F +  x9_F +  x10_F +  x11_F +  x12_F + x13_F          = 1;

bin xI_1, xI_2, xI_3, xI_4, xI_6, xI_9, xI_10, xI_11, xI_12, xI_13, xI_F,
    x1_2, x1_3, x1_4, x1_6, x1_9, x1_10, x1_11, x1_12, x1_13, x1_F,
    x2_3, x2_4, x2_6, x2_9, x2_10, x2_11, x2_12, x2_13, x2_F,
    x3_4, x3_6, x3_9, x3_10, x3_11, x3_12, x3_13, x3_F,
    x4_6, x4_9, x4_10, x4_11, x4_12, x4_13, x4_F,
    x6_9, x6_10, x6_11, x6_12, x6_13, x6_F,
    x9_10, x9_11, x9_12, x9_13, x9_F,
    x10_11, x10_12, x10_13, x10_F,
    x11_12, x11_13, x11_F,
    x12_13, x12_F,
    x13_F;
    
    
    