TP2/93288.txt
22
55
11 1 1 1000
11 2 15 1000
11 3 2 1000
11 4 4 1000
11 5 6 1000
11 6 11 1000
11 7 9 1000
11 9 9 1000
11 10 10 1000
12 5 5 1000
12 7 7 1000
12 22 2 1000
13 5 10 1000
13 7 6 1000
13 22 16 1000 
14 2 11 1000
14 5 6 1000
14 7 6 1000
14 10 6 1000
14 22 3 1000
15 1 6 1000
15 2 14 1000
15 5 4 1000
15 6 8 1000
15 7 8 1000
15 10 11 1000
15 22 5 1000
16 22 7 1000
17 5 6 1000
17 7 5 1000
17 22 12 1000
18 5 4 1000
18 22 10 1000
20 1 0 1000
20 2 13 1000
20 3 5 1000
20 5 5 1000
20 6 10 1000
20 7 7 1000
20 10 7 1000
20 22 10 1000
21 2 4 1000
21 5 7 1000
21 7 5 1000
21 22 11 1000
22 11 0 1000
1 12 0 1000
2 13 0 1000
3 14 0 1000
4 15 0 1000
5 16 0 1000
6 17 0 1000
7 18 0 1000
9 20 0 1000
10 21 0 1000
-1
-1
-1
-1
-1
-1
-1
0
-1
-1
-1
1
1
1
1
1
1
1
0
1
1
1